\ SCIP STATISTICS
\   Problem name     : SetCover-100-200
\   Variables        : 200 (200 binary, 0 integer, 0 implicit integer, 0 continuous)
\   Constraints      : 100
Minimize
 Obj: +38 x0 +57 x1 +3 x2 +14 x3 +23 x4 +85 x5 +96 x6 +12 x7 +71 x8 +14 x9 +80 x10 +80 x11 +79 x12 +78 x13
      +59 x14 +95 x15 +77 x16 +78 x17 +83 x18 +77 x19 +16 x20 +58 x21 +33 x22 +79 x23 +7 x24 +72 x25 +38 x26
      +64 x27 +37 x28 +100 x29 +39 x30 +41 x31 +75 x32 +17 x33 +67 x34 +32 x35 +75 x36 +21 x37 +61 x38
      +89 x39 +37 x40 +17 x41 +66 x42 +4 x43 +52 x44 +16 x45 +9 x46 +54 x47 +62 x48 +93 x49 +33 x50 +37 x51
      +16 x52 +46 x53 +34 x54 +63 x55 +72 x56 +57 x57 +71 x58 +40 x59 +100 x60 +20 x61 +74 x62 +71 x63
      +18 x64 +10 x65 +94 x66 +57 x67 +5 x68 +31 x69 +88 x70 +47 x71 +65 x72 +21 x73 +28 x74 +66 x75 +39 x76
      +60 x77 +23 x78 +32 x79 +64 x80 +95 x81 +36 x82 +54 x83 +91 x84 +71 x85 +28 x86 +29 x87 +37 x88
      +8 x89 +25 x90 +71 x91 +95 x92 +57 x93 +51 x94 +61 x95 +40 x96 +26 x97 +26 x98 +96 x99 +44 x100
      +88 x101 +2 x102 +100 x103 +9 x104 +36 x105 +90 x106 +60 x107 +90 x108 +14 x109 +66 x110 +78 x111
      +67 x112 +60 x113 +78 x114 +76 x115 +96 x116 +36 x117 +52 x118 +64 x119 +96 x120 +9 x121 +11 x122
      +32 x123 +9 x124 +83 x125 +73 x126 +37 x127 +78 x128 +91 x129 +78 x130 +26 x131 +27 x132 +83 x133
      +92 x134 +67 x135 +80 x136 +98 x137 +27 x138 +73 x139 +98 x140 +34 x141 +48 x142 +66 x143 +58 x144
      +18 x145 +50 x146 +56 x147 +20 x148 +30 x149 +62 x150 +1 x151 +8 x152 +57 x153 +48 x154 +21 x155
      +65 x156 +76 x157 +40 x158 +14 x159 +21 x160 +86 x161 +27 x162 +26 x163 +7 x164 +15 x165 +31 x166
      +80 x167 +43 x168 +57 x169 +7 x170 +48 x171 +69 x172 +80 x173 +39 x174 +29 x175 +100 x176 +5 x177
      +15 x178 +14 x179 +13 x180 +44 x181 +79 x182 +69 x183 +57 x184 +45 x185 +68 x186 +48 x187 +48 x188
      +16 x189 +52 x190 +61 x191 +64 x192 +77 x193 +45 x194 +79 x195 +34 x196 +28 x197 +9 x198 +19 x199
Subject to
 c0: +1 x3 +1 x11 +1 x13 +1 x15 +1 x16 +1 x18 +1 x19 +1 x22 +1 x25 +1 x26 +1 x27 +1 x32 +1 x37 +1 x39
  +1 x45 +1 x52 +1 x59 +1 x72 +1 x75 +1 x80 +1 x83 +1 x89 +1 x96 +1 x100 +1 x103 +1 x106 +1 x108 +1 x116
  +1 x117 +1 x119 +1 x124 +1 x132 +1 x133 +1 x135 +1 x152 +1 x153 +1 x155 +1 x156 +1 x157 +1 x164 +1 x170
  +1 x182 +1 x183 +1 x191 +1 x193 +1 x195 >= +1
 c1: +1 x0 +1 x13 +1 x16 +1 x17 +1 x20 +1 x24 +1 x28 +1 x29 +1 x30 +1 x32 +1 x35 +1 x44 +1 x46 +1 x49
  +1 x55 +1 x62 +1 x72 +1 x73 +1 x84 +1 x98 +1 x100 +1 x104 +1 x109 +1 x123 +1 x126 +1 x127 +1 x134 +1 x139
  +1 x161 +1 x162 +1 x163 +1 x164 +1 x166 +1 x180 +1 x181 +1 x192 +1 x193 +1 x196 +1 x197 >= +1
 c2: +1 x1 +1 x8 +1 x12 +1 x13 +1 x17 +1 x19 +1 x26 +1 x29 +1 x31 +1 x37 +1 x38 +1 x39 +1 x47 +1 x52 +1 x54
  +1 x57 +1 x58 +1 x61 +1 x62 +1 x63 +1 x64 +1 x69 +1 x77 +1 x90 +1 x96 +1 x113 +1 x114 +1 x116 +1 x123
  +1 x126 +1 x131 +1 x132 +1 x134 +1 x135 +1 x139 +1 x158 +1 x163 +1 x164 +1 x172 +1 x175 +1 x178 +1 x180
  +1 x187 +1 x194 >= +1
 c3: +1 x0 +1 x10 +1 x12 +1 x15 +1 x16 +1 x17 +1 x20 +1 x21 +1 x35 +1 x39 +1 x46 +1 x51 +1 x64 +1 x67
  +1 x71 +1 x73 +1 x77 +1 x80 +1 x82 +1 x90 +1 x94 +1 x98 +1 x100 +1 x102 +1 x106 +1 x109 +1 x110 +1 x116
  +1 x128 +1 x129 +1 x133 +1 x139 +1 x140 +1 x151 +1 x172 +1 x174 +1 x176 +1 x179 +1 x188 +1 x189 +1 x190
  +1 x193 +1 x199 >= +1
 c4: +1 x3 +1 x6 +1 x15 +1 x16 +1 x21 +1 x24 +1 x29 +1 x35 +1 x36 +1 x48 +1 x50 +1 x57 +1 x61 +1 x68 +1 x69
  +1 x70 +1 x71 +1 x76 +1 x81 +1 x88 +1 x89 +1 x91 +1 x96 +1 x102 +1 x107 +1 x141 +1 x148 +1 x160 +1 x162
  +1 x163 +1 x168 +1 x177 +1 x180 +1 x181 +1 x185 +1 x188 >= +1
 c5: +1 x3 +1 x9 +1 x16 +1 x20 +1 x21 +1 x28 +1 x34 +1 x63 +1 x72 +1 x75 +1 x77 +1 x82 +1 x103 +1 x109
  +1 x113 +1 x137 +1 x141 +1 x149 +1 x167 +1 x170 +1 x171 +1 x172 +1 x175 +1 x176 +1 x184 >= +1
 c6: +1 x3 +1 x10 +1 x12 +1 x26 +1 x30 +1 x34 +1 x43 +1 x48 +1 x61 +1 x63 +1 x70 +1 x77 +1 x78 +1 x88
  +1 x92 +1 x94 +1 x96 +1 x110 +1 x112 +1 x115 +1 x128 +1 x130 +1 x132 +1 x134 +1 x135 +1 x139 +1 x147
  +1 x148 +1 x152 +1 x156 +1 x160 +1 x162 +1 x164 +1 x165 +1 x171 +1 x176 +1 x177 +1 x182 +1 x184 +1 x185
  +1 x191 +1 x192 +1 x194 >= +1
 c7: +1 x1 +1 x5 +1 x12 +1 x18 +1 x29 +1 x30 +1 x36 +1 x40 +1 x46 +1 x62 +1 x63 +1 x65 +1 x72 +1 x74 +1 x81
  +1 x86 +1 x97 +1 x98 +1 x100 +1 x104 +1 x105 +1 x106 +1 x115 +1 x117 +1 x125 +1 x126 +1 x127 +1 x128
  +1 x138 +1 x145 +1 x146 +1 x152 +1 x164 +1 x166 +1 x167 +1 x177 +1 x180 +1 x199 >= +1
 c8: +1 x2 +1 x7 +1 x8 +1 x10 +1 x17 +1 x19 +1 x24 +1 x29 +1 x38 +1 x44 +1 x50 +1 x59 +1 x61 +1 x65 +1 x69
  +1 x79 +1 x82 +1 x84 +1 x87 +1 x95 +1 x101 +1 x106 +1 x111 +1 x120 +1 x121 +1 x123 +1 x124 +1 x129 +1 x131
  +1 x133 +1 x134 +1 x135 +1 x136 +1 x141 +1 x154 +1 x158 +1 x167 +1 x168 +1 x171 +1 x182 +1 x185 +1 x195
  >= +1
 c9: +1 x1 +1 x6 +1 x11 +1 x17 +1 x18 +1 x21 +1 x24 +1 x25 +1 x28 +1 x36 +1 x46 +1 x50 +1 x54 +1 x59 +1 x71
  +1 x72 +1 x81 +1 x87 +1 x92 +1 x112 +1 x113 +1 x119 +1 x124 +1 x129 +1 x134 +1 x138 +1 x142 +1 x151
  +1 x154 +1 x155 +1 x182 +1 x185 +1 x189 >= +1
 c10: +1 x2 +1 x11 +1 x12 +1 x13 +1 x17 +1 x35 +1 x37 +1 x38 +1 x44 +1 x50 +1 x52 +1 x53 +1 x58 +1 x63
  +1 x64 +1 x74 +1 x79 +1 x86 +1 x89 +1 x92 +1 x106 +1 x107 +1 x122 +1 x124 +1 x127 +1 x139 +1 x140 +1 x141
  +1 x147 +1 x148 +1 x153 +1 x156 +1 x159 +1 x161 +1 x165 +1 x168 +1 x175 +1 x176 +1 x177 +1 x186 +1 x196
  +1 x197 >= +1
 c11: +1 x4 +1 x6 +1 x13 +1 x20 +1 x22 +1 x27 +1 x29 +1 x37 +1 x38 +1 x42 +1 x46 +1 x53 +1 x56 +1 x70
  +1 x74 +1 x84 +1 x91 +1 x92 +1 x94 +1 x98 +1 x101 +1 x118 +1 x119 +1 x127 +1 x133 +1 x137 +1 x140 +1 x141
  +1 x151 +1 x155 +1 x162 +1 x169 +1 x171 +1 x177 +1 x178 +1 x179 +1 x181 +1 x185 +1 x190 +1 x191 >= +1
 c12: +1 x3 +1 x13 +1 x24 +1 x26 +1 x32 +1 x36 +1 x40 +1 x42 +1 x44 +1 x46 +1 x50 +1 x51 +1 x53 +1 x59
  +1 x61 +1 x67 +1 x69 +1 x88 +1 x98 +1 x101 +1 x107 +1 x119 +1 x121 +1 x130 +1 x138 +1 x139 +1 x140 +1 x148
  +1 x153 +1 x163 +1 x166 +1 x173 +1 x178 +1 x179 +1 x183 +1 x184 +1 x188 +1 x195 +1 x198 +1 x199 >= +1
 c13: +1 x3 +1 x19 +1 x20 +1 x26 +1 x32 +1 x55 +1 x74 +1 x76 +1 x78 +1 x89 +1 x93 +1 x95 +1 x99 +1 x103
  +1 x106 +1 x110 +1 x123 +1 x130 +1 x136 +1 x138 +1 x142 +1 x146 +1 x148 +1 x152 +1 x161 +1 x165 +1 x171
  +1 x174 +1 x185 +1 x188 >= +1
 c14: +1 x1 +1 x8 +1 x11 +1 x22 +1 x26 +1 x28 +1 x29 +1 x48 +1 x49 +1 x55 +1 x65 +1 x71 +1 x75 +1 x84
  +1 x91 +1 x103 +1 x106 +1 x111 +1 x115 +1 x122 +1 x124 +1 x135 +1 x138 +1 x148 +1 x155 +1 x159 +1 x164
  +1 x172 +1 x178 +1 x184 +1 x188 +1 x189 +1 x198 >= +1
 c15: +1 x3 +1 x5 +1 x6 +1 x13 +1 x18 +1 x20 +1 x24 +1 x28 +1 x31 +1 x37 +1 x38 +1 x46 +1 x49 +1 x51 +1 x58
  +1 x65 +1 x69 +1 x72 +1 x73 +1 x75 +1 x78 +1 x95 +1 x97 +1 x102 +1 x105 +1 x112 +1 x114 +1 x117 +1 x118
  +1 x119 +1 x122 +1 x125 +1 x127 +1 x131 +1 x140 +1 x144 +1 x147 +1 x154 +1 x163 +1 x166 +1 x169 +1 x174
  +1 x178 +1 x179 +1 x192 +1 x193 +1 x197 >= +1
 c16: +1 x4 +1 x5 +1 x7 +1 x15 +1 x16 +1 x25 +1 x26 +1 x27 +1 x35 +1 x39 +1 x41 +1 x42 +1 x43 +1 x44 +1 x48
  +1 x53 +1 x54 +1 x57 +1 x59 +1 x62 +1 x66 +1 x67 +1 x69 +1 x72 +1 x74 +1 x76 +1 x80 +1 x82 +1 x84 +1 x92
  +1 x96 +1 x99 +1 x101 +1 x107 +1 x125 +1 x131 +1 x133 +1 x134 +1 x138 +1 x142 +1 x143 +1 x147 +1 x149
  +1 x162 +1 x164 +1 x168 +1 x177 +1 x186 +1 x194 >= +1
 c17: +1 x0 +1 x4 +1 x8 +1 x13 +1 x14 +1 x19 +1 x20 +1 x22 +1 x24 +1 x26 +1 x28 +1 x30 +1 x37 +1 x39 +1 x58
  +1 x59 +1 x67 +1 x69 +1 x74 +1 x78 +1 x82 +1 x86 +1 x88 +1 x91 +1 x93 +1 x97 +1 x100 +1 x101 +1 x118
  +1 x133 +1 x138 +1 x139 +1 x142 +1 x147 +1 x149 +1 x153 +1 x166 +1 x176 +1 x184 >= +1
 c18: +1 x2 +1 x6 +1 x7 +1 x11 +1 x15 +1 x20 +1 x22 +1 x25 +1 x29 +1 x31 +1 x33 +1 x35 +1 x44 +1 x45 +1 x52
  +1 x54 +1 x55 +1 x56 +1 x57 +1 x59 +1 x60 +1 x61 +1 x64 +1 x68 +1 x69 +1 x70 +1 x71 +1 x73 +1 x91 +1 x92
  +1 x97 +1 x109 +1 x112 +1 x121 +1 x127 +1 x136 +1 x138 +1 x142 +1 x149 +1 x150 +1 x153 +1 x157 +1 x165
  +1 x176 +1 x186 +1 x193 +1 x196 >= +1
 c19: +1 x0 +1 x8 +1 x20 +1 x34 +1 x45 +1 x58 +1 x75 +1 x77 +1 x82 +1 x91 +1 x92 +1 x99 +1 x100 +1 x107
  +1 x109 +1 x113 +1 x114 +1 x115 +1 x116 +1 x117 +1 x128 +1 x131 +1 x143 +1 x146 +1 x152 +1 x160 +1 x164
  +1 x170 +1 x171 +1 x174 +1 x180 +1 x185 +1 x188 +1 x194 +1 x198 >= +1
 c20: +1 x3 +1 x12 +1 x14 +1 x16 +1 x17 +1 x19 +1 x22 +1 x29 +1 x34 +1 x35 +1 x42 +1 x46 +1 x49 +1 x54
  +1 x65 +1 x74 +1 x78 +1 x86 +1 x88 +1 x91 +1 x97 +1 x98 +1 x106 +1 x109 +1 x110 +1 x116 +1 x117 +1 x130
  +1 x136 +1 x138 +1 x142 +1 x143 +1 x160 +1 x166 +1 x168 +1 x182 +1 x183 +1 x185 +1 x191 +1 x194 +1 x198
  >= +1
 c21: +1 x2 +1 x9 +1 x12 +1 x17 +1 x20 +1 x29 +1 x37 +1 x39 +1 x43 +1 x48 +1 x51 +1 x54 +1 x57 +1 x58
  +1 x62 +1 x64 +1 x67 +1 x75 +1 x80 +1 x90 +1 x91 +1 x96 +1 x97 +1 x99 +1 x110 +1 x111 +1 x120 +1 x124
  +1 x127 +1 x143 +1 x154 +1 x156 +1 x167 +1 x177 +1 x181 +1 x185 +1 x187 +1 x188 +1 x189 >= +1
 c22: +1 x0 +1 x13 +1 x19 +1 x28 +1 x30 +1 x51 +1 x58 +1 x59 +1 x66 +1 x67 +1 x72 +1 x73 +1 x86 +1 x91
  +1 x96 +1 x99 +1 x103 +1 x105 +1 x111 +1 x116 +1 x120 +1 x136 +1 x141 +1 x149 +1 x154 +1 x155 +1 x158
  +1 x161 +1 x165 +1 x171 +1 x176 +1 x178 +1 x182 +1 x188 +1 x192 >= +1
 c23: +1 x0 +1 x16 +1 x21 +1 x30 +1 x31 +1 x35 +1 x36 +1 x45 +1 x49 +1 x59 +1 x63 +1 x64 +1 x69 +1 x75
  +1 x76 +1 x77 +1 x81 +1 x83 +1 x100 +1 x110 +1 x121 +1 x125 +1 x134 +1 x136 +1 x137 +1 x143 +1 x145
  +1 x147 +1 x162 +1 x166 +1 x170 +1 x175 +1 x178 +1 x188 +1 x190 +1 x191 +1 x199 >= +1
 c24: +1 x1 +1 x11 +1 x12 +1 x19 +1 x31 +1 x33 +1 x42 +1 x43 +1 x46 +1 x61 +1 x67 +1 x70 +1 x80 +1 x83
  +1 x87 +1 x88 +1 x99 +1 x100 +1 x101 +1 x103 +1 x104 +1 x107 +1 x116 +1 x122 +1 x154 +1 x156 +1 x164
  +1 x170 +1 x178 +1 x183 +1 x192 >= +1
 c25: +1 x3 +1 x6 +1 x14 +1 x15 +1 x17 +1 x18 +1 x19 +1 x22 +1 x28 +1 x39 +1 x41 +1 x42 +1 x44 +1 x48
  +1 x54 +1 x58 +1 x60 +1 x64 +1 x68 +1 x75 +1 x76 +1 x79 +1 x88 +1 x91 +1 x92 +1 x99 +1 x103 +1 x109
  +1 x112 +1 x114 +1 x117 +1 x121 +1 x124 +1 x127 +1 x131 +1 x132 +1 x135 +1 x141 +1 x142 +1 x144 +1 x154
  +1 x155 +1 x158 +1 x160 +1 x161 +1 x168 +1 x169 +1 x176 +1 x188 +1 x189 +1 x199 >= +1
 c26: +1 x3 +1 x12 +1 x14 +1 x15 +1 x18 +1 x20 +1 x27 +1 x28 +1 x29 +1 x38 +1 x45 +1 x50 +1 x54 +1 x56
  +1 x60 +1 x64 +1 x74 +1 x79 +1 x90 +1 x92 +1 x95 +1 x102 +1 x118 +1 x119 +1 x128 +1 x130 +1 x135 +1 x136
  +1 x137 +1 x141 +1 x145 +1 x150 +1 x153 +1 x163 +1 x165 +1 x169 +1 x170 +1 x171 +1 x179 +1 x181 +1 x183
  +1 x194 +1 x195 +1 x198 >= +1
 c27: +1 x1 +1 x7 +1 x10 +1 x17 +1 x18 +1 x26 +1 x34 +1 x40 +1 x42 +1 x45 +1 x47 +1 x48 +1 x49 +1 x52
  +1 x57 +1 x61 +1 x63 +1 x69 +1 x71 +1 x72 +1 x74 +1 x82 +1 x89 +1 x92 +1 x102 +1 x111 +1 x119 +1 x126
  +1 x128 +1 x142 +1 x143 +1 x144 +1 x150 +1 x156 +1 x157 +1 x168 +1 x179 +1 x182 +1 x185 +1 x186 +1 x190
  +1 x195 >= +1
 c28: +1 x3 +1 x7 +1 x15 +1 x18 +1 x19 +1 x27 +1 x36 +1 x40 +1 x42 +1 x43 +1 x50 +1 x58 +1 x67 +1 x78
  +1 x80 +1 x82 +1 x97 +1 x110 +1 x114 +1 x119 +1 x120 +1 x127 +1 x136 +1 x138 +1 x140 +1 x143 +1 x145
  +1 x146 +1 x151 +1 x153 +1 x157 +1 x158 +1 x170 +1 x176 +1 x185 +1 x186 +1 x189 +1 x193 +1 x199 >= +1
 c29: +1 x2 +1 x5 +1 x15 +1 x22 +1 x24 +1 x29 +1 x46 +1 x47 +1 x56 +1 x59 +1 x60 +1 x68 +1 x69 +1 x79
  +1 x83 +1 x84 +1 x88 +1 x89 +1 x90 +1 x94 +1 x107 +1 x111 +1 x121 +1 x124 +1 x128 +1 x142 +1 x151 +1 x164
  +1 x167 +1 x172 +1 x174 +1 x176 +1 x177 +1 x190 +1 x198 >= +1
 c30: +1 x3 +1 x10 +1 x22 +1 x25 +1 x29 +1 x32 +1 x33 +1 x35 +1 x38 +1 x40 +1 x43 +1 x46 +1 x49 +1 x51
  +1 x57 +1 x59 +1 x68 +1 x76 +1 x78 +1 x79 +1 x81 +1 x82 +1 x84 +1 x97 +1 x100 +1 x102 +1 x104 +1 x109
  +1 x117 +1 x119 +1 x120 +1 x126 +1 x128 +1 x130 +1 x131 +1 x132 +1 x139 +1 x142 +1 x148 +1 x153 +1 x155
  +1 x157 +1 x162 +1 x168 +1 x187 +1 x189 +1 x194 +1 x199 >= +1
 c31: +1 x4 +1 x10 +1 x12 +1 x13 +1 x17 +1 x34 +1 x44 +1 x46 +1 x59 +1 x69 +1 x70 +1 x72 +1 x78 +1 x83
  +1 x85 +1 x88 +1 x93 +1 x103 +1 x109 +1 x115 +1 x121 +1 x124 +1 x130 +1 x137 +1 x170 +1 x172 +1 x174
  +1 x177 +1 x179 +1 x181 +1 x182 +1 x185 +1 x194 +1 x196 +1 x197 >= +1
 c32: +1 x2 +1 x8 +1 x13 +1 x15 +1 x20 +1 x21 +1 x30 +1 x33 +1 x34 +1 x49 +1 x55 +1 x63 +1 x64 +1 x65
  +1 x70 +1 x84 +1 x90 +1 x98 +1 x99 +1 x109 +1 x117 +1 x126 +1 x127 +1 x129 +1 x132 +1 x134 +1 x143 +1 x152
  +1 x154 +1 x155 +1 x163 +1 x164 +1 x174 +1 x181 +1 x184 +1 x188 +1 x195 +1 x198 >= +1
 c33: +1 x1 +1 x8 +1 x9 +1 x11 +1 x14 +1 x21 +1 x30 +1 x33 +1 x35 +1 x43 +1 x52 +1 x55 +1 x65 +1 x73 +1 x83
  +1 x84 +1 x94 +1 x101 +1 x104 +1 x116 +1 x121 +1 x125 +1 x147 +1 x152 +1 x161 +1 x164 +1 x165 +1 x168
  +1 x172 +1 x179 +1 x182 +1 x188 +1 x189 +1 x191 >= +1
 c34: +1 x1 +1 x17 +1 x22 +1 x26 +1 x30 +1 x37 +1 x44 +1 x47 +1 x57 +1 x59 +1 x60 +1 x62 +1 x67 +1 x73
  +1 x76 +1 x80 +1 x82 +1 x87 +1 x88 +1 x95 +1 x101 +1 x102 +1 x107 +1 x113 +1 x118 +1 x127 +1 x151 +1 x168
  +1 x173 +1 x178 +1 x180 +1 x191 +1 x192 +1 x195 >= +1
 c35: +1 x4 +1 x12 +1 x20 +1 x28 +1 x29 +1 x30 +1 x33 +1 x45 +1 x56 +1 x57 +1 x68 +1 x78 +1 x81 +1 x85
  +1 x92 +1 x96 +1 x97 +1 x98 +1 x101 +1 x102 +1 x103 +1 x109 +1 x123 +1 x146 +1 x147 +1 x148 +1 x159
  +1 x161 +1 x162 +1 x165 +1 x178 +1 x179 +1 x182 +1 x186 +1 x187 +1 x188 +1 x192 >= +1
 c36: +1 x1 +1 x17 +1 x18 +1 x20 +1 x23 +1 x24 +1 x36 +1 x37 +1 x46 +1 x47 +1 x49 +1 x60 +1 x65 +1 x68
  +1 x69 +1 x79 +1 x85 +1 x87 +1 x90 +1 x95 +1 x98 +1 x109 +1 x110 +1 x113 +1 x114 +1 x115 +1 x118 +1 x119
  +1 x131 +1 x132 +1 x147 +1 x148 +1 x156 +1 x159 +1 x162 +1 x164 +1 x165 +1 x168 +1 x170 +1 x180 +1 x182
  +1 x189 +1 x191 +1 x193 +1 x194 +1 x195 >= +1
 c37: +1 x1 +1 x6 +1 x7 +1 x22 +1 x29 +1 x42 +1 x51 +1 x54 +1 x56 +1 x61 +1 x64 +1 x66 +1 x67 +1 x80 +1 x87
  +1 x94 +1 x97 +1 x111 +1 x112 +1 x119 +1 x120 +1 x126 +1 x139 +1 x146 +1 x157 +1 x163 +1 x169 +1 x173
  +1 x180 +1 x185 +1 x188 +1 x191 >= +1
 c38: +1 x0 +1 x9 +1 x11 +1 x14 +1 x19 +1 x25 +1 x26 +1 x28 +1 x37 +1 x38 +1 x53 +1 x62 +1 x66 +1 x77
  +1 x78 +1 x79 +1 x81 +1 x82 +1 x88 +1 x91 +1 x93 +1 x95 +1 x105 +1 x114 +1 x119 +1 x126 +1 x130 +1 x136
  +1 x138 +1 x141 +1 x145 +1 x148 +1 x151 +1 x153 +1 x158 +1 x165 +1 x171 +1 x177 +1 x180 +1 x186 +1 x189
  +1 x190 >= +1
 c39: +1 x4 +1 x10 +1 x12 +1 x13 +1 x17 +1 x20 +1 x31 +1 x42 +1 x44 +1 x49 +1 x51 +1 x52 +1 x57 +1 x58
  +1 x60 +1 x61 +1 x62 +1 x72 +1 x82 +1 x85 +1 x90 +1 x92 +1 x103 +1 x104 +1 x117 +1 x119 +1 x120 +1 x123
  +1 x126 +1 x133 +1 x141 +1 x143 +1 x145 +1 x148 +1 x150 +1 x157 +1 x161 +1 x174 +1 x176 +1 x179 +1 x181
  +1 x184 +1 x188 >= +1
 c40: +1 x3 +1 x10 +1 x11 +1 x29 +1 x30 +1 x35 +1 x37 +1 x38 +1 x40 +1 x42 +1 x60 +1 x64 +1 x67 +1 x69
  +1 x75 +1 x77 +1 x81 +1 x82 +1 x91 +1 x95 +1 x97 +1 x98 +1 x108 +1 x113 +1 x116 +1 x118 +1 x119 +1 x127
  +1 x129 +1 x130 +1 x132 +1 x139 +1 x141 +1 x149 +1 x152 +1 x155 +1 x159 +1 x161 +1 x173 +1 x174 +1 x180
  +1 x183 +1 x188 +1 x189 +1 x191 +1 x195 >= +1
 c41: +1 x0 +1 x24 +1 x30 +1 x32 +1 x39 +1 x44 +1 x47 +1 x52 +1 x53 +1 x54 +1 x56 +1 x57 +1 x59 +1 x61
  +1 x63 +1 x68 +1 x70 +1 x72 +1 x79 +1 x81 +1 x84 +1 x86 +1 x88 +1 x91 +1 x97 +1 x99 +1 x101 +1 x105
  +1 x113 +1 x123 +1 x125 +1 x126 +1 x128 +1 x133 +1 x136 +1 x139 +1 x144 +1 x146 +1 x148 +1 x155 +1 x157
  +1 x160 +1 x172 +1 x173 +1 x175 +1 x180 +1 x182 +1 x189 +1 x191 +1 x198 >= +1
 c42: +1 x3 +1 x7 +1 x13 +1 x15 +1 x16 +1 x21 +1 x27 +1 x36 +1 x44 +1 x46 +1 x51 +1 x59 +1 x65 +1 x68
  +1 x69 +1 x76 +1 x79 +1 x82 +1 x86 +1 x90 +1 x91 +1 x94 +1 x103 +1 x107 +1 x113 +1 x119 +1 x123 +1 x126
  +1 x129 +1 x132 +1 x135 +1 x143 +1 x149 +1 x154 +1 x156 +1 x165 +1 x172 +1 x179 +1 x180 +1 x183 +1 x194
  >= +1
 c43: +1 x4 +1 x5 +1 x18 +1 x24 +1 x25 +1 x28 +1 x41 +1 x44 +1 x50 +1 x70 +1 x72 +1 x74 +1 x76 +1 x90
  +1 x94 +1 x96 +1 x108 +1 x109 +1 x116 +1 x121 +1 x133 +1 x141 +1 x143 +1 x147 +1 x148 +1 x149 +1 x150
  +1 x151 +1 x159 +1 x168 +1 x177 +1 x182 +1 x193 >= +1
 c44: +1 x4 +1 x26 +1 x31 +1 x36 +1 x50 +1 x54 +1 x55 +1 x60 +1 x73 +1 x80 +1 x87 +1 x95 +1 x97 +1 x100
  +1 x104 +1 x106 +1 x107 +1 x108 +1 x113 +1 x119 +1 x128 +1 x151 +1 x158 +1 x162 +1 x168 +1 x171 +1 x172
  +1 x181 +1 x186 +1 x188 >= +1
 c45: +1 x0 +1 x5 +1 x7 +1 x21 +1 x31 +1 x36 +1 x51 +1 x53 +1 x58 +1 x72 +1 x75 +1 x90 +1 x94 +1 x101
  +1 x103 +1 x106 +1 x110 +1 x114 +1 x116 +1 x120 +1 x123 +1 x128 +1 x129 +1 x130 +1 x134 +1 x137 +1 x140
  +1 x144 +1 x146 +1 x147 +1 x161 +1 x162 +1 x163 +1 x167 +1 x168 +1 x169 +1 x173 +1 x183 +1 x186 +1 x187
  +1 x194 +1 x195 >= +1
 c46: +1 x0 +1 x19 +1 x23 +1 x27 +1 x28 +1 x29 +1 x31 +1 x34 +1 x35 +1 x43 +1 x47 +1 x49 +1 x51 +1 x53
  +1 x54 +1 x57 +1 x64 +1 x65 +1 x68 +1 x71 +1 x72 +1 x78 +1 x83 +1 x87 +1 x88 +1 x91 +1 x96 +1 x103 +1 x111
  +1 x112 +1 x125 +1 x131 +1 x132 +1 x133 +1 x135 +1 x139 +1 x141 +1 x144 +1 x149 +1 x152 +1 x158 +1 x164
  +1 x166 +1 x171 +1 x181 +1 x194 +1 x196 >= +1
 c47: +1 x3 +1 x6 +1 x23 +1 x27 +1 x28 +1 x32 +1 x35 +1 x36 +1 x40 +1 x46 +1 x48 +1 x60 +1 x63 +1 x69
  +1 x76 +1 x78 +1 x81 +1 x83 +1 x93 +1 x111 +1 x117 +1 x118 +1 x121 +1 x162 +1 x169 +1 x170 +1 x171 +1 x175
  +1 x179 +1 x183 +1 x199 >= +1
 c48: +1 x0 +1 x6 +1 x10 +1 x11 +1 x14 +1 x17 +1 x22 +1 x30 +1 x37 +1 x43 +1 x49 +1 x52 +1 x56 +1 x62
  +1 x63 +1 x68 +1 x76 +1 x82 +1 x89 +1 x99 +1 x105 +1 x114 +1 x115 +1 x124 +1 x128 +1 x135 +1 x137 +1 x159
  +1 x180 +1 x182 +1 x185 +1 x188 +1 x192 >= +1
 c49: +1 x0 +1 x5 +1 x9 +1 x14 +1 x20 +1 x40 +1 x41 +1 x44 +1 x47 +1 x52 +1 x60 +1 x66 +1 x72 +1 x76 +1 x78
  +1 x81 +1 x83 +1 x84 +1 x85 +1 x88 +1 x92 +1 x94 +1 x100 +1 x113 +1 x125 +1 x130 +1 x140 +1 x141 +1 x142
  +1 x157 +1 x161 +1 x166 +1 x169 +1 x174 +1 x180 +1 x185 +1 x186 +1 x187 +1 x199 >= +1
 c50: +1 x1 +1 x6 +1 x8 +1 x12 +1 x20 +1 x28 +1 x32 +1 x35 +1 x38 +1 x41 +1 x44 +1 x54 +1 x55 +1 x61 +1 x62
  +1 x68 +1 x79 +1 x80 +1 x90 +1 x109 +1 x111 +1 x120 +1 x121 +1 x124 +1 x126 +1 x127 +1 x129 +1 x131
  +1 x135 +1 x137 +1 x148 +1 x154 +1 x162 +1 x164 +1 x165 +1 x168 +1 x169 +1 x173 +1 x179 +1 x180 +1 x185
  +1 x188 +1 x195 >= +1
 c51: +1 x3 +1 x8 +1 x10 +1 x24 +1 x25 +1 x28 +1 x30 +1 x36 +1 x50 +1 x51 +1 x53 +1 x55 +1 x56 +1 x59
  +1 x89 +1 x106 +1 x109 +1 x114 +1 x116 +1 x122 +1 x126 +1 x136 +1 x142 +1 x145 +1 x151 +1 x154 +1 x167
  +1 x178 +1 x189 +1 x195 +1 x196 +1 x199 >= +1
 c52: +1 x1 +1 x6 +1 x13 +1 x14 +1 x18 +1 x43 +1 x44 +1 x47 +1 x55 +1 x59 +1 x60 +1 x70 +1 x76 +1 x78
  +1 x81 +1 x84 +1 x87 +1 x96 +1 x98 +1 x100 +1 x101 +1 x102 +1 x107 +1 x109 +1 x120 +1 x129 +1 x142 +1 x151
  +1 x153 +1 x156 +1 x162 +1 x173 +1 x188 +1 x194 +1 x196 >= +1
 c53: +1 x2 +1 x9 +1 x13 +1 x21 +1 x35 +1 x47 +1 x48 +1 x55 +1 x73 +1 x74 +1 x83 +1 x86 +1 x94 +1 x110
  +1 x114 +1 x119 +1 x121 +1 x122 +1 x123 +1 x132 +1 x136 +1 x140 +1 x149 +1 x150 +1 x155 +1 x164 +1 x172
  +1 x176 +1 x179 +1 x182 +1 x193 +1 x194 +1 x197 +1 x199 >= +1
 c54: +1 x3 +1 x7 +1 x10 +1 x11 +1 x14 +1 x19 +1 x34 +1 x39 +1 x41 +1 x43 +1 x45 +1 x52 +1 x56 +1 x60
  +1 x61 +1 x69 +1 x72 +1 x90 +1 x91 +1 x103 +1 x105 +1 x113 +1 x114 +1 x116 +1 x119 +1 x130 +1 x138 +1 x148
  +1 x150 +1 x158 +1 x163 +1 x165 +1 x167 +1 x170 +1 x171 +1 x176 +1 x194 >= +1
 c55: +1 x0 +1 x9 +1 x12 +1 x14 +1 x24 +1 x26 +1 x27 +1 x31 +1 x32 +1 x34 +1 x35 +1 x36 +1 x37 +1 x44
  +1 x47 +1 x49 +1 x50 +1 x54 +1 x63 +1 x66 +1 x71 +1 x72 +1 x73 +1 x75 +1 x82 +1 x93 +1 x96 +1 x118 +1 x125
  +1 x127 +1 x135 +1 x137 +1 x138 +1 x141 +1 x148 +1 x153 +1 x155 +1 x169 +1 x173 +1 x176 +1 x177 +1 x197
  >= +1
 c56: +1 x4 +1 x9 +1 x10 +1 x12 +1 x22 +1 x30 +1 x32 +1 x33 +1 x36 +1 x38 +1 x51 +1 x59 +1 x62 +1 x68
  +1 x70 +1 x73 +1 x80 +1 x89 +1 x91 +1 x98 +1 x103 +1 x104 +1 x112 +1 x113 +1 x115 +1 x120 +1 x126 +1 x128
  +1 x129 +1 x136 +1 x141 +1 x148 +1 x156 +1 x161 +1 x168 +1 x170 +1 x177 +1 x181 +1 x190 +1 x192 +1 x193
  >= +1
 c57: +1 x0 +1 x12 +1 x15 +1 x18 +1 x22 +1 x36 +1 x39 +1 x43 +1 x48 +1 x57 +1 x59 +1 x60 +1 x62 +1 x71
  +1 x73 +1 x82 +1 x86 +1 x87 +1 x89 +1 x91 +1 x97 +1 x104 +1 x107 +1 x116 +1 x123 +1 x125 +1 x131 +1 x138
  +1 x140 +1 x148 +1 x151 +1 x167 +1 x172 +1 x182 +1 x188 +1 x190 +1 x198 >= +1
 c58: +1 x0 +1 x7 +1 x10 +1 x16 +1 x24 +1 x26 +1 x29 +1 x34 +1 x35 +1 x42 +1 x44 +1 x48 +1 x49 +1 x56
  +1 x57 +1 x61 +1 x65 +1 x70 +1 x71 +1 x95 +1 x96 +1 x102 +1 x104 +1 x106 +1 x115 +1 x122 +1 x126 +1 x144
  +1 x155 +1 x164 +1 x165 +1 x168 +1 x171 +1 x175 +1 x177 +1 x183 +1 x198 +1 x199 >= +1
 c59: +1 x0 +1 x12 +1 x14 +1 x30 +1 x34 +1 x42 +1 x44 +1 x55 +1 x59 +1 x60 +1 x64 +1 x72 +1 x77 +1 x78
  +1 x85 +1 x88 +1 x95 +1 x105 +1 x114 +1 x119 +1 x123 +1 x127 +1 x129 +1 x133 +1 x136 +1 x138 +1 x143
  +1 x146 +1 x151 +1 x152 +1 x155 +1 x156 +1 x158 +1 x164 +1 x183 +1 x185 +1 x188 +1 x191 +1 x192 +1 x199
  >= +1
 c60: +1 x0 +1 x11 +1 x14 +1 x18 +1 x19 +1 x24 +1 x25 +1 x31 +1 x41 +1 x44 +1 x45 +1 x54 +1 x55 +1 x58
  +1 x71 +1 x72 +1 x73 +1 x78 +1 x80 +1 x83 +1 x88 +1 x89 +1 x97 +1 x101 +1 x106 +1 x116 +1 x121 +1 x122
  +1 x123 +1 x130 +1 x131 +1 x138 +1 x140 +1 x141 +1 x144 +1 x145 +1 x146 +1 x157 +1 x159 +1 x161 +1 x176
  +1 x178 +1 x179 +1 x188 +1 x191 +1 x198 >= +1
 c61: +1 x2 +1 x9 +1 x16 +1 x23 +1 x30 +1 x37 +1 x48 +1 x50 +1 x66 +1 x68 +1 x72 +1 x76 +1 x85 +1 x95
  +1 x98 +1 x102 +1 x103 +1 x106 +1 x108 +1 x112 +1 x118 +1 x124 +1 x126 +1 x128 +1 x129 +1 x133 +1 x146
  +1 x147 +1 x148 +1 x152 +1 x161 +1 x163 +1 x166 +1 x169 +1 x171 +1 x178 +1 x194 +1 x197 >= +1
 c62: +1 x2 +1 x33 +1 x47 +1 x56 +1 x57 +1 x60 +1 x70 +1 x72 +1 x91 +1 x93 +1 x101 +1 x104 +1 x105 +1 x112
  +1 x113 +1 x117 +1 x123 +1 x130 +1 x137 +1 x141 +1 x142 +1 x154 +1 x156 +1 x161 +1 x162 +1 x166 +1 x168
  +1 x187 +1 x192 >= +1
 c63: +1 x2 +1 x8 +1 x11 +1 x12 +1 x15 +1 x16 +1 x18 +1 x23 +1 x24 +1 x28 +1 x29 +1 x32 +1 x37 +1 x40
  +1 x48 +1 x49 +1 x50 +1 x58 +1 x63 +1 x66 +1 x74 +1 x75 +1 x84 +1 x85 +1 x103 +1 x107 +1 x117 +1 x118
  +1 x125 +1 x128 +1 x132 +1 x135 +1 x142 +1 x150 +1 x153 +1 x162 +1 x167 +1 x169 +1 x171 +1 x175 +1 x179
  +1 x190 +1 x191 +1 x194 +1 x195 >= +1
 c64: +1 x3 +1 x8 +1 x11 +1 x18 +1 x21 +1 x22 +1 x25 +1 x26 +1 x31 +1 x41 +1 x43 +1 x45 +1 x47 +1 x67
  +1 x79 +1 x100 +1 x103 +1 x105 +1 x109 +1 x111 +1 x123 +1 x124 +1 x125 +1 x127 +1 x132 +1 x141 +1 x146
  +1 x147 +1 x154 +1 x158 +1 x161 +1 x163 +1 x166 +1 x167 +1 x173 +1 x176 +1 x182 >= +1
 c65: +1 x0 +1 x10 +1 x27 +1 x35 +1 x43 +1 x45 +1 x50 +1 x70 +1 x79 +1 x80 +1 x83 +1 x96 +1 x104 +1 x107
  +1 x111 +1 x116 +1 x119 +1 x122 +1 x124 +1 x131 +1 x137 +1 x143 +1 x148 +1 x155 +1 x156 +1 x157 +1 x161
  +1 x168 +1 x170 +1 x174 +1 x180 +1 x196 >= +1
 c66: +1 x4 +1 x5 +1 x7 +1 x9 +1 x11 +1 x24 +1 x29 +1 x31 +1 x32 +1 x54 +1 x66 +1 x69 +1 x71 +1 x76 +1 x77
  +1 x85 +1 x97 +1 x101 +1 x105 +1 x110 +1 x115 +1 x117 +1 x118 +1 x122 +1 x132 +1 x133 +1 x134 +1 x148
  +1 x150 +1 x154 +1 x157 +1 x162 +1 x163 +1 x168 +1 x172 +1 x178 +1 x183 >= +1
 c67: +1 x3 +1 x14 +1 x19 +1 x24 +1 x28 +1 x35 +1 x38 +1 x44 +1 x47 +1 x50 +1 x52 +1 x57 +1 x61 +1 x64
  +1 x69 +1 x70 +1 x73 +1 x80 +1 x84 +1 x96 +1 x97 +1 x103 +1 x105 +1 x109 +1 x124 +1 x128 +1 x139 +1 x143
  +1 x147 +1 x158 +1 x170 +1 x174 +1 x176 +1 x185 +1 x192 +1 x199 >= +1
 c68: +1 x4 +1 x10 +1 x15 +1 x20 +1 x24 +1 x27 +1 x33 +1 x38 +1 x40 +1 x45 +1 x48 +1 x51 +1 x53 +1 x63
  +1 x64 +1 x66 +1 x67 +1 x72 +1 x75 +1 x81 +1 x90 +1 x96 +1 x102 +1 x107 +1 x114 +1 x115 +1 x117 +1 x118
  +1 x130 +1 x161 +1 x165 +1 x175 +1 x178 +1 x182 +1 x183 +1 x184 >= +1
 c69: +1 x2 +1 x5 +1 x26 +1 x28 +1 x29 +1 x30 +1 x37 +1 x40 +1 x41 +1 x53 +1 x54 +1 x57 +1 x65 +1 x66
  +1 x72 +1 x76 +1 x84 +1 x86 +1 x92 +1 x93 +1 x96 +1 x98 +1 x108 +1 x110 +1 x112 +1 x115 +1 x122 +1 x135
  +1 x140 +1 x152 +1 x153 +1 x163 +1 x167 +1 x168 +1 x175 +1 x183 +1 x193 >= +1
 c70: +1 x4 +1 x13 +1 x16 +1 x17 +1 x22 +1 x29 +1 x30 +1 x34 +1 x38 +1 x40 +1 x49 +1 x60 +1 x61 +1 x65
  +1 x68 +1 x73 +1 x75 +1 x76 +1 x79 +1 x81 +1 x83 +1 x98 +1 x106 +1 x109 +1 x114 +1 x123 +1 x127 +1 x129
  +1 x131 +1 x135 +1 x136 +1 x144 +1 x151 +1 x154 +1 x159 +1 x162 +1 x174 +1 x183 +1 x184 +1 x185 +1 x195
  >= +1
 c71: +1 x2 +1 x5 +1 x10 +1 x12 +1 x17 +1 x28 +1 x31 +1 x32 +1 x33 +1 x36 +1 x37 +1 x56 +1 x63 +1 x66
  +1 x67 +1 x69 +1 x70 +1 x73 +1 x76 +1 x81 +1 x87 +1 x96 +1 x100 +1 x105 +1 x118 +1 x120 +1 x137 +1 x141
  +1 x144 +1 x146 +1 x148 +1 x158 +1 x166 +1 x169 +1 x171 +1 x172 +1 x175 +1 x176 +1 x177 +1 x179 +1 x183
  +1 x190 +1 x191 +1 x194 +1 x196 +1 x197 >= +1
 c72: +1 x4 +1 x12 +1 x14 +1 x15 +1 x19 +1 x21 +1 x32 +1 x35 +1 x40 +1 x42 +1 x43 +1 x44 +1 x55 +1 x56
  +1 x61 +1 x62 +1 x63 +1 x64 +1 x65 +1 x77 +1 x81 +1 x85 +1 x89 +1 x100 +1 x101 +1 x102 +1 x106 +1 x113
  +1 x130 +1 x138 +1 x139 +1 x142 +1 x143 +1 x145 +1 x156 +1 x160 +1 x163 +1 x167 +1 x174 +1 x176 +1 x178
  +1 x184 >= +1
 c73: +1 x2 +1 x6 +1 x8 +1 x12 +1 x14 +1 x17 +1 x21 +1 x26 +1 x29 +1 x31 +1 x38 +1 x42 +1 x46 +1 x50 +1 x51
  +1 x55 +1 x57 +1 x58 +1 x59 +1 x61 +1 x66 +1 x68 +1 x69 +1 x79 +1 x80 +1 x85 +1 x95 +1 x98 +1 x102 +1 x103
  +1 x105 +1 x112 +1 x118 +1 x123 +1 x129 +1 x141 +1 x143 +1 x144 +1 x146 +1 x149 +1 x152 +1 x155 +1 x159
  +1 x168 +1 x178 +1 x187 +1 x192 +1 x197 +1 x199 >= +1
 c74: +1 x0 +1 x9 +1 x13 +1 x16 +1 x17 +1 x18 +1 x30 +1 x33 +1 x41 +1 x45 +1 x51 +1 x65 +1 x72 +1 x74
  +1 x82 +1 x85 +1 x102 +1 x119 +1 x120 +1 x121 +1 x122 +1 x124 +1 x126 +1 x133 +1 x136 +1 x141 +1 x147
  +1 x156 +1 x160 +1 x166 +1 x168 +1 x172 +1 x181 +1 x184 +1 x193 +1 x195 >= +1
 c75: +1 x2 +1 x5 +1 x7 +1 x13 +1 x22 +1 x23 +1 x25 +1 x28 +1 x29 +1 x38 +1 x39 +1 x47 +1 x54 +1 x58 +1 x63
  +1 x66 +1 x72 +1 x76 +1 x81 +1 x87 +1 x96 +1 x103 +1 x111 +1 x112 +1 x115 +1 x118 +1 x124 +1 x126 +1 x131
  +1 x134 +1 x136 +1 x137 +1 x141 +1 x142 +1 x145 +1 x147 +1 x150 +1 x151 +1 x167 +1 x172 +1 x173 +1 x178
  +1 x187 +1 x188 +1 x191 >= +1
 c76: +1 x1 +1 x5 +1 x7 +1 x11 +1 x18 +1 x20 +1 x42 +1 x46 +1 x54 +1 x58 +1 x68 +1 x69 +1 x87 +1 x89 +1 x91
  +1 x99 +1 x102 +1 x104 +1 x107 +1 x111 +1 x112 +1 x120 +1 x123 +1 x133 +1 x136 +1 x139 +1 x142 +1 x152
  +1 x165 +1 x171 +1 x176 +1 x177 +1 x186 >= +1
 c77: +1 x3 +1 x5 +1 x14 +1 x15 +1 x16 +1 x25 +1 x37 +1 x40 +1 x42 +1 x47 +1 x49 +1 x54 +1 x58 +1 x70
  +1 x77 +1 x78 +1 x80 +1 x82 +1 x85 +1 x91 +1 x92 +1 x96 +1 x99 +1 x101 +1 x124 +1 x132 +1 x134 +1 x135
  +1 x136 +1 x145 +1 x153 +1 x159 +1 x162 +1 x167 +1 x169 +1 x172 +1 x174 +1 x175 +1 x180 +1 x181 +1 x182
  +1 x184 +1 x189 +1 x198 +1 x199 >= +1
 c78: +1 x4 +1 x5 +1 x8 +1 x15 +1 x16 +1 x18 +1 x21 +1 x25 +1 x30 +1 x33 +1 x35 +1 x36 +1 x37 +1 x39 +1 x43
  +1 x53 +1 x60 +1 x70 +1 x73 +1 x75 +1 x78 +1 x81 +1 x85 +1 x91 +1 x92 +1 x94 +1 x100 +1 x102 +1 x108
  +1 x115 +1 x124 +1 x126 +1 x129 +1 x130 +1 x131 +1 x146 +1 x148 +1 x149 +1 x153 +1 x155 +1 x163 +1 x165
  +1 x170 +1 x172 +1 x181 +1 x183 +1 x186 +1 x188 +1 x194 +1 x195 +1 x196 >= +1
 c79: +1 x0 +1 x8 +1 x14 +1 x20 +1 x24 +1 x27 +1 x29 +1 x33 +1 x36 +1 x46 +1 x47 +1 x49 +1 x52 +1 x53
  +1 x61 +1 x68 +1 x69 +1 x70 +1 x71 +1 x79 +1 x94 +1 x97 +1 x100 +1 x115 +1 x118 +1 x123 +1 x144 +1 x147
  +1 x152 +1 x155 +1 x163 +1 x164 +1 x167 +1 x169 +1 x171 +1 x180 +1 x181 +1 x185 +1 x187 +1 x189 +1 x190
  +1 x195 >= +1
 c80: +1 x2 +1 x7 +1 x11 +1 x12 +1 x15 +1 x24 +1 x27 +1 x31 +1 x38 +1 x44 +1 x46 +1 x58 +1 x63 +1 x69
  +1 x72 +1 x78 +1 x90 +1 x91 +1 x97 +1 x111 +1 x113 +1 x117 +1 x120 +1 x129 +1 x131 +1 x140 +1 x147 +1 x148
  +1 x151 +1 x153 +1 x155 +1 x161 +1 x163 +1 x164 +1 x167 +1 x178 +1 x188 >= +1
 c81: +1 x0 +1 x5 +1 x7 +1 x14 +1 x18 +1 x22 +1 x31 +1 x34 +1 x56 +1 x58 +1 x63 +1 x67 +1 x68 +1 x74 +1 x82
  +1 x83 +1 x84 +1 x91 +1 x95 +1 x101 +1 x103 +1 x109 +1 x111 +1 x113 +1 x116 +1 x121 +1 x128 +1 x136
  +1 x137 +1 x150 +1 x151 +1 x155 +1 x159 +1 x160 +1 x161 +1 x163 +1 x170 +1 x179 +1 x181 +1 x183 +1 x188
  +1 x190 +1 x194 >= +1
 c82: +1 x0 +1 x7 +1 x29 +1 x30 +1 x36 +1 x44 +1 x48 +1 x55 +1 x65 +1 x68 +1 x82 +1 x90 +1 x94 +1 x95
  +1 x102 +1 x103 +1 x107 +1 x109 +1 x114 +1 x123 +1 x124 +1 x132 +1 x150 +1 x154 +1 x156 +1 x162 +1 x171
  +1 x172 +1 x175 +1 x176 +1 x177 +1 x179 +1 x187 +1 x189 +1 x190 +1 x198 >= +1
 c83: +1 x1 +1 x25 +1 x28 +1 x32 +1 x33 +1 x39 +1 x42 +1 x44 +1 x49 +1 x50 +1 x58 +1 x61 +1 x64 +1 x77
  +1 x80 +1 x83 +1 x85 +1 x97 +1 x108 +1 x113 +1 x123 +1 x143 +1 x146 +1 x148 +1 x156 +1 x157 +1 x159
  +1 x163 +1 x168 +1 x179 +1 x184 +1 x187 +1 x195 +1 x196 +1 x197 >= +1
 c84: +1 x2 +1 x6 +1 x9 +1 x16 +1 x19 +1 x22 +1 x25 +1 x37 +1 x39 +1 x41 +1 x45 +1 x46 +1 x49 +1 x51 +1 x63
  +1 x65 +1 x72 +1 x74 +1 x78 +1 x84 +1 x87 +1 x89 +1 x91 +1 x92 +1 x95 +1 x99 +1 x107 +1 x108 +1 x111
  +1 x117 +1 x119 +1 x122 +1 x129 +1 x138 +1 x145 +1 x147 +1 x149 +1 x150 +1 x152 +1 x158 +1 x160 +1 x161
  +1 x163 +1 x164 +1 x175 +1 x177 +1 x184 +1 x185 +1 x188 +1 x199 >= +1
 c85: +1 x4 +1 x11 +1 x19 +1 x21 +1 x23 +1 x34 +1 x37 +1 x38 +1 x40 +1 x42 +1 x44 +1 x60 +1 x61 +1 x62
  +1 x64 +1 x65 +1 x74 +1 x77 +1 x81 +1 x82 +1 x85 +1 x88 +1 x100 +1 x101 +1 x103 +1 x113 +1 x117 +1 x118
  +1 x121 +1 x128 +1 x129 +1 x132 +1 x134 +1 x142 +1 x145 +1 x150 +1 x158 +1 x161 +1 x175 +1 x176 +1 x187
  +1 x188 +1 x192 >= +1
 c86: +1 x0 +1 x7 +1 x10 +1 x11 +1 x13 +1 x14 +1 x16 +1 x22 +1 x23 +1 x24 +1 x27 +1 x28 +1 x38 +1 x39
  +1 x40 +1 x43 +1 x47 +1 x48 +1 x50 +1 x57 +1 x60 +1 x65 +1 x66 +1 x68 +1 x73 +1 x77 +1 x78 +1 x85 +1 x88
  +1 x92 +1 x110 +1 x117 +1 x119 +1 x124 +1 x126 +1 x142 +1 x143 +1 x148 +1 x157 +1 x160 +1 x161 +1 x165
  +1 x167 +1 x168 +1 x170 +1 x178 +1 x189 +1 x196 >= +1
 c87: +1 x1 +1 x10 +1 x28 +1 x33 +1 x39 +1 x41 +1 x51 +1 x52 +1 x54 +1 x63 +1 x64 +1 x84 +1 x86 +1 x89
  +1 x105 +1 x106 +1 x113 +1 x117 +1 x118 +1 x120 +1 x125 +1 x127 +1 x131 +1 x137 +1 x138 +1 x143 +1 x146
  +1 x149 +1 x151 +1 x152 +1 x158 +1 x159 +1 x167 +1 x170 +1 x177 +1 x178 +1 x196 +1 x197 >= +1
 c88: +1 x2 +1 x9 +1 x12 +1 x14 +1 x21 +1 x34 +1 x37 +1 x43 +1 x49 +1 x59 +1 x63 +1 x66 +1 x67 +1 x72
  +1 x75 +1 x95 +1 x98 +1 x99 +1 x101 +1 x105 +1 x108 +1 x110 +1 x111 +1 x119 +1 x128 +1 x130 +1 x131
  +1 x133 +1 x138 +1 x139 +1 x140 +1 x141 +1 x143 +1 x144 +1 x147 +1 x153 +1 x157 +1 x179 +1 x181 +1 x184
  +1 x186 +1 x193 +1 x198 +1 x199 >= +1
 c89: +1 x0 +1 x6 +1 x8 +1 x10 +1 x11 +1 x19 +1 x23 +1 x28 +1 x32 +1 x33 +1 x34 +1 x38 +1 x43 +1 x46 +1 x50
  +1 x59 +1 x65 +1 x66 +1 x70 +1 x80 +1 x89 +1 x92 +1 x95 +1 x99 +1 x109 +1 x112 +1 x113 +1 x114 +1 x120
  +1 x121 +1 x122 +1 x124 +1 x125 +1 x137 +1 x144 +1 x147 +1 x155 +1 x158 +1 x161 +1 x162 +1 x165 +1 x167
  +1 x169 +1 x171 +1 x178 +1 x180 +1 x185 +1 x190 +1 x192 +1 x195 >= +1
 c90: +1 x2 +1 x8 +1 x11 +1 x12 +1 x13 +1 x14 +1 x17 +1 x22 +1 x25 +1 x28 +1 x32 +1 x37 +1 x43 +1 x45
  +1 x46 +1 x54 +1 x67 +1 x70 +1 x71 +1 x73 +1 x79 +1 x84 +1 x95 +1 x105 +1 x116 +1 x117 +1 x123 +1 x124
  +1 x127 +1 x136 +1 x142 +1 x143 +1 x146 +1 x147 +1 x149 +1 x157 +1 x159 +1 x160 +1 x173 +1 x175 +1 x176
  +1 x181 +1 x186 +1 x187 +1 x190 +1 x193 +1 x195 >= +1
 c91: +1 x0 +1 x8 +1 x11 +1 x21 +1 x23 +1 x48 +1 x58 +1 x61 +1 x70 +1 x71 +1 x72 +1 x73 +1 x82 +1 x84
  +1 x86 +1 x88 +1 x89 +1 x103 +1 x104 +1 x109 +1 x115 +1 x116 +1 x123 +1 x128 +1 x135 +1 x141 +1 x142
  +1 x143 +1 x148 +1 x152 +1 x154 +1 x158 +1 x159 +1 x160 +1 x161 +1 x169 +1 x174 +1 x175 +1 x182 +1 x184
  +1 x186 +1 x192 >= +1
 c92: +1 x0 +1 x9 +1 x11 +1 x14 +1 x19 +1 x33 +1 x37 +1 x39 +1 x42 +1 x44 +1 x50 +1 x51 +1 x57 +1 x59
  +1 x63 +1 x67 +1 x68 +1 x70 +1 x75 +1 x81 +1 x87 +1 x91 +1 x93 +1 x96 +1 x98 +1 x102 +1 x107 +1 x113
  +1 x121 +1 x123 +1 x127 +1 x131 +1 x132 +1 x133 +1 x136 +1 x147 +1 x148 +1 x150 +1 x160 +1 x163 +1 x164
  +1 x171 +1 x173 +1 x184 +1 x195 +1 x198 +1 x199 >= +1
 c93: +1 x3 +1 x4 +1 x5 +1 x6 +1 x16 +1 x18 +1 x20 +1 x21 +1 x22 +1 x26 +1 x33 +1 x43 +1 x50 +1 x51 +1 x52
  +1 x59 +1 x60 +1 x66 +1 x77 +1 x86 +1 x87 +1 x91 +1 x92 +1 x94 +1 x96 +1 x99 +1 x100 +1 x101 +1 x104
  +1 x106 +1 x108 +1 x112 +1 x116 +1 x129 +1 x133 +1 x135 +1 x143 +1 x147 +1 x152 +1 x153 +1 x157 +1 x166
  +1 x167 +1 x170 +1 x177 +1 x179 +1 x185 +1 x186 +1 x190 +1 x197 +1 x198 >= +1
 c94: +1 x2 +1 x5 +1 x6 +1 x22 +1 x24 +1 x25 +1 x31 +1 x32 +1 x33 +1 x40 +1 x44 +1 x49 +1 x56 +1 x61 +1 x70
  +1 x71 +1 x72 +1 x75 +1 x82 +1 x83 +1 x87 +1 x88 +1 x101 +1 x105 +1 x106 +1 x115 +1 x132 +1 x135 +1 x136
  +1 x143 +1 x144 +1 x146 +1 x148 +1 x171 +1 x180 +1 x187 +1 x188 +1 x199 >= +1
 c95: +1 x3 +1 x8 +1 x14 +1 x16 +1 x19 +1 x25 +1 x26 +1 x31 +1 x34 +1 x45 +1 x48 +1 x50 +1 x58 +1 x64
  +1 x67 +1 x69 +1 x71 +1 x73 +1 x76 +1 x79 +1 x80 +1 x84 +1 x85 +1 x93 +1 x103 +1 x105 +1 x114 +1 x128
  +1 x129 +1 x132 +1 x136 +1 x142 +1 x143 +1 x146 +1 x149 +1 x151 +1 x153 +1 x161 +1 x178 +1 x181 +1 x188
  +1 x191 +1 x193 +1 x194 +1 x197 +1 x198 >= +1
 c96: +1 x3 +1 x6 +1 x11 +1 x12 +1 x22 +1 x26 +1 x39 +1 x51 +1 x59 +1 x63 +1 x68 +1 x69 +1 x71 +1 x84
  +1 x86 +1 x88 +1 x90 +1 x104 +1 x105 +1 x108 +1 x113 +1 x120 +1 x122 +1 x125 +1 x134 +1 x137 +1 x139
  +1 x141 +1 x142 +1 x144 +1 x160 +1 x163 +1 x166 +1 x169 +1 x184 +1 x186 +1 x196 >= +1
 c97: +1 x1 +1 x6 +1 x7 +1 x10 +1 x28 +1 x30 +1 x33 +1 x39 +1 x40 +1 x41 +1 x43 +1 x56 +1 x63 +1 x66 +1 x67
  +1 x68 +1 x70 +1 x78 +1 x81 +1 x82 +1 x83 +1 x102 +1 x110 +1 x113 +1 x115 +1 x117 +1 x120 +1 x137 +1 x141
  +1 x144 +1 x147 +1 x148 +1 x159 +1 x162 +1 x171 +1 x174 +1 x179 +1 x180 +1 x181 +1 x182 +1 x184 +1 x186
  +1 x195 >= +1
 c98: +1 x1 +1 x7 +1 x11 +1 x19 +1 x22 +1 x23 +1 x24 +1 x26 +1 x31 +1 x32 +1 x35 +1 x36 +1 x38 +1 x40
  +1 x45 +1 x48 +1 x69 +1 x72 +1 x83 +1 x86 +1 x87 +1 x92 +1 x104 +1 x107 +1 x109 +1 x110 +1 x111 +1 x115
  +1 x128 +1 x131 +1 x133 +1 x150 +1 x155 +1 x159 +1 x173 +1 x175 +1 x180 +1 x184 +1 x186 +1 x199 >= +1
 c99: +1 x4 +1 x5 +1 x6 +1 x10 +1 x11 +1 x27 +1 x28 +1 x60 +1 x61 +1 x71 +1 x79 +1 x81 +1 x84 +1 x85 +1 x88
  +1 x93 +1 x95 +1 x107 +1 x109 +1 x113 +1 x115 +1 x120 +1 x122 +1 x129 +1 x131 +1 x133 +1 x135 +1 x136
  +1 x141 +1 x142 +1 x145 +1 x167 +1 x173 +1 x182 +1 x190 +1 x197 +1 x198 >= +1
Bounds
 0 <= x0 <= 1
 0 <= x1 <= 1
 0 <= x2 <= 1
 0 <= x3 <= 1
 0 <= x4 <= 1
 0 <= x5 <= 1
 0 <= x6 <= 1
 0 <= x7 <= 1
 0 <= x8 <= 1
 0 <= x9 <= 1
 0 <= x10 <= 1
 0 <= x11 <= 1
 0 <= x12 <= 1
 0 <= x13 <= 1
 0 <= x14 <= 1
 0 <= x15 <= 1
 0 <= x16 <= 1
 0 <= x17 <= 1
 0 <= x18 <= 1
 0 <= x19 <= 1
 0 <= x20 <= 1
 0 <= x21 <= 1
 0 <= x22 <= 1
 0 <= x23 <= 1
 0 <= x24 <= 1
 0 <= x25 <= 1
 0 <= x26 <= 1
 0 <= x27 <= 1
 0 <= x28 <= 1
 0 <= x29 <= 1
 0 <= x30 <= 1
 0 <= x31 <= 1
 0 <= x32 <= 1
 0 <= x33 <= 1
 0 <= x34 <= 1
 0 <= x35 <= 1
 0 <= x36 <= 1
 0 <= x37 <= 1
 0 <= x38 <= 1
 0 <= x39 <= 1
 0 <= x40 <= 1
 0 <= x41 <= 1
 0 <= x42 <= 1
 0 <= x43 <= 1
 0 <= x44 <= 1
 0 <= x45 <= 1
 0 <= x46 <= 1
 0 <= x47 <= 1
 0 <= x48 <= 1
 0 <= x49 <= 1
 0 <= x50 <= 1
 0 <= x51 <= 1
 0 <= x52 <= 1
 0 <= x53 <= 1
 0 <= x54 <= 1
 0 <= x55 <= 1
 0 <= x56 <= 1
 0 <= x57 <= 1
 0 <= x58 <= 1
 0 <= x59 <= 1
 0 <= x60 <= 1
 0 <= x61 <= 1
 0 <= x62 <= 1
 0 <= x63 <= 1
 0 <= x64 <= 1
 0 <= x65 <= 1
 0 <= x66 <= 1
 0 <= x67 <= 1
 0 <= x68 <= 1
 0 <= x69 <= 1
 0 <= x70 <= 1
 0 <= x71 <= 1
 0 <= x72 <= 1
 0 <= x73 <= 1
 0 <= x74 <= 1
 0 <= x75 <= 1
 0 <= x76 <= 1
 0 <= x77 <= 1
 0 <= x78 <= 1
 0 <= x79 <= 1
 0 <= x80 <= 1
 0 <= x81 <= 1
 0 <= x82 <= 1
 0 <= x83 <= 1
 0 <= x84 <= 1
 0 <= x85 <= 1
 0 <= x86 <= 1
 0 <= x87 <= 1
 0 <= x88 <= 1
 0 <= x89 <= 1
 0 <= x90 <= 1
 0 <= x91 <= 1
 0 <= x92 <= 1
 0 <= x93 <= 1
 0 <= x94 <= 1
 0 <= x95 <= 1
 0 <= x96 <= 1
 0 <= x97 <= 1
 0 <= x98 <= 1
 0 <= x99 <= 1
 0 <= x100 <= 1
 0 <= x101 <= 1
 0 <= x102 <= 1
 0 <= x103 <= 1
 0 <= x104 <= 1
 0 <= x105 <= 1
 0 <= x106 <= 1
 0 <= x107 <= 1
 0 <= x108 <= 1
 0 <= x109 <= 1
 0 <= x110 <= 1
 0 <= x111 <= 1
 0 <= x112 <= 1
 0 <= x113 <= 1
 0 <= x114 <= 1
 0 <= x115 <= 1
 0 <= x116 <= 1
 0 <= x117 <= 1
 0 <= x118 <= 1
 0 <= x119 <= 1
 0 <= x120 <= 1
 0 <= x121 <= 1
 0 <= x122 <= 1
 0 <= x123 <= 1
 0 <= x124 <= 1
 0 <= x125 <= 1
 0 <= x126 <= 1
 0 <= x127 <= 1
 0 <= x128 <= 1
 0 <= x129 <= 1
 0 <= x130 <= 1
 0 <= x131 <= 1
 0 <= x132 <= 1
 0 <= x133 <= 1
 0 <= x134 <= 1
 0 <= x135 <= 1
 0 <= x136 <= 1
 0 <= x137 <= 1
 0 <= x138 <= 1
 0 <= x139 <= 1
 0 <= x140 <= 1
 0 <= x141 <= 1
 0 <= x142 <= 1
 0 <= x143 <= 1
 0 <= x144 <= 1
 0 <= x145 <= 1
 0 <= x146 <= 1
 0 <= x147 <= 1
 0 <= x148 <= 1
 0 <= x149 <= 1
 0 <= x150 <= 1
 0 <= x151 <= 1
 0 <= x152 <= 1
 0 <= x153 <= 1
 0 <= x154 <= 1
 0 <= x155 <= 1
 0 <= x156 <= 1
 0 <= x157 <= 1
 0 <= x158 <= 1
 0 <= x159 <= 1
 0 <= x160 <= 1
 0 <= x161 <= 1
 0 <= x162 <= 1
 0 <= x163 <= 1
 0 <= x164 <= 1
 0 <= x165 <= 1
 0 <= x166 <= 1
 0 <= x167 <= 1
 0 <= x168 <= 1
 0 <= x169 <= 1
 0 <= x170 <= 1
 0 <= x171 <= 1
 0 <= x172 <= 1
 0 <= x173 <= 1
 0 <= x174 <= 1
 0 <= x175 <= 1
 0 <= x176 <= 1
 0 <= x177 <= 1
 0 <= x178 <= 1
 0 <= x179 <= 1
 0 <= x180 <= 1
 0 <= x181 <= 1
 0 <= x182 <= 1
 0 <= x183 <= 1
 0 <= x184 <= 1
 0 <= x185 <= 1
 0 <= x186 <= 1
 0 <= x187 <= 1
 0 <= x188 <= 1
 0 <= x189 <= 1
 0 <= x190 <= 1
 0 <= x191 <= 1
 0 <= x192 <= 1
 0 <= x193 <= 1
 0 <= x194 <= 1
 0 <= x195 <= 1
 0 <= x196 <= 1
 0 <= x197 <= 1
 0 <= x198 <= 1
 0 <= x199 <= 1
Binaries
 x0 x1 x2 x3 x4 x5 x6 x7 x8 x9 x10 x11 x12 x13 x14 x15 x16 x17 x18 x19 x20 x21 x22 x23 x24 x25 x26 x27
 x28 x29 x30 x31 x32 x33 x34 x35 x36 x37 x38 x39 x40 x41 x42 x43 x44 x45 x46 x47 x48 x49 x50 x51 x52 x53
 x54 x55 x56 x57 x58 x59 x60 x61 x62 x63 x64 x65 x66 x67 x68 x69 x70 x71 x72 x73 x74 x75 x76 x77 x78 x79
 x80 x81 x82 x83 x84 x85 x86 x87 x88 x89 x90 x91 x92 x93 x94 x95 x96 x97 x98 x99 x100 x101 x102 x103 x104
 x105 x106 x107 x108 x109 x110 x111 x112 x113 x114 x115 x116 x117 x118 x119 x120 x121 x122 x123 x124 x125
 x126 x127 x128 x129 x130 x131 x132 x133 x134 x135 x136 x137 x138 x139 x140 x141 x142 x143 x144 x145 x146
 x147 x148 x149 x150 x151 x152 x153 x154 x155 x156 x157 x158 x159 x160 x161 x162 x163 x164 x165 x166 x167
 x168 x169 x170 x171 x172 x173 x174 x175 x176 x177 x178 x179 x180 x181 x182 x183 x184 x185 x186 x187 x188
 x189 x190 x191 x192 x193 x194 x195 x196 x197 x198 x199
End
